4 
5  33 48 
6  03 18 33 47 
7  02 17 32 47 
8  02 17 32 47 
9  02 17 32 47 
10  02 17 32 47 
11  02 17 32 47 
12  02 17 32 47 
13  02 17 32 47 
14  02 17 32 47 
15  02 17 32 47 
16  02 17 32 47 
17  02 17 32 47 
18  02 17 32 47 
19  03 17 32 47 
20  02 17 32 47 
21  02 17 32 47 
22  02 17 33 48 
23  09 
0 
